Minimize
  - 4 y_0 - 3 y_1 - 2 y_2 - 2 y_3 - 7 y_4 - 6 y_5 - 2 y_6 - y_7 - 4 y_8
   - 4 y_9 - 3 y_10 - 3 y_11 - 5 y_12 - 5 y_13 - 4 y_14 - 4 y_15 - 5 y_16
   - 2 y_17 - 3 y_18 - 7 y_19 - 3 y_20 - 5 y_21 - 5 y_22 - 2 y_23 - y_24
   - 5 y_25 - 4 y_26 - 3 y_27 - 4 y_29 - 2 y_31 - 4 y_32 - 3 y_33 - 4 y_34
   - 6 y_35 - 4 y_36 - 2 y_37 - 6 y_38 - y_39 - 4 y_40 - 4 y_41 - 4 y_42
   - 5 y_43 - 5 y_44 - 5 y_45 - 4 y_46 - 2 y_47 - 2 y_48 - 2 y_49
   + 177 Constant
Subject To
 c_0: y_13 = 1
 c_1_0: y_0 + y_8 + y_14 + y_18 + y_20 + y_41 + y_47 >= 1
 c_1_1: y_1 + y_6 + y_17 + y_18 + y_24 + y_31 + y_36 + y_41 + y_47 + y_49
   >= 1
 c_1_2: y_2 + y_9 + y_10 + y_26 + y_27 >= 1
 c_1_3: y_3 + y_6 + y_7 + y_8 + y_20 + y_29 + y_33 + y_40 >= 1
 c_1_4: y_4 + y_5 >= 1
 c_1_5: y_4 + y_5 + y_8 + y_29 >= 1
 c_1_6: y_1 + y_3 + y_6 + y_7 + y_17 + y_18 + y_20 + y_24 + y_28 + y_30
   + y_31 + y_47 + y_49 >= 1
 c_1_7: y_3 + y_6 + y_7 + y_24 + y_28 + y_30 + y_33 + y_37 + y_47 + y_49
   >= 1
 c_1_8: y_0 + y_3 + y_5 + y_8 + y_14 + y_20 + y_29 + y_33 + y_40 >= 1
 c_1_9: y_2 + y_9 + y_10 + y_26 + y_27 + y_32 >= 1
 c_1_10: y_2 + y_9 + y_10 + y_26 + y_27 + y_32 + y_37 >= 1
 c_1_11: y_11 + y_25 + y_39 + y_42 + y_43 >= 1
 c_1_12: y_12 + y_13 + y_16 + y_25 + y_38 + y_42 >= 1
 c_1_13: y_12 + y_13 + y_16 + y_25 + y_38 + y_42 >= 1
 c_1_14: y_0 + y_8 + y_14 + y_18 + y_20 + y_47 >= 1
 c_1_15: y_15 + y_44 + y_45 >= 1
 c_1_16: y_12 + y_13 + y_16 + y_25 + y_38 + y_42 >= 1
 c_1_17: y_1 + y_6 + y_17 + y_23 + y_24 + y_31 + y_34 + y_36 + y_47 + y_48
   + y_49 >= 1
 c_1_18: y_0 + y_1 + y_6 + y_14 + y_18 + y_20 + y_31 + y_36 + y_41 + y_47
   + y_49 >= 1
 c_1_19: y_19 + y_35 >= 1
 c_1_20: y_0 + y_3 + y_6 + y_8 + y_14 + y_18 + y_20 + y_33 + y_40 + y_47
   + y_49 >= 1
 c_1_21: y_21 + y_36 + y_41 >= 1
 c_1_22: y_22 + y_33 + y_40 >= 1
 c_1_23: y_17 + y_23 + y_24 + y_34 + y_39 + y_46 + y_48 >= 1
 c_1_24: y_1 + y_6 + y_7 + y_17 + y_23 + y_24 + y_28 + y_30 + y_31 + y_39
   + y_48 + y_49 >= 1
 c_1_25: y_11 + y_12 + y_13 + y_16 + y_25 + y_38 + y_42 + y_43 >= 1
 c_1_26: y_2 + y_9 + y_10 + y_26 + y_27 + y_32 + y_44 + y_45 >= 1
 c_1_27: y_2 + y_9 + y_10 + y_26 + y_27 + y_32 + y_37 >= 1
 c_1_28: y_6 + y_7 + y_24 + y_28 + y_30 + y_39 + y_48 + y_49 >= 1
 c_1_29: y_3 + y_5 + y_8 + y_29 + y_33 + y_40 >= 1
 c_1_30: y_6 + y_7 + y_24 + y_28 + y_30 + y_37 + y_39 + y_48 + y_49 >= 1
 c_1_31: y_1 + y_6 + y_17 + y_18 + y_24 + y_31 + y_34 + y_36 + y_47 + y_48
   + y_49 >= 1
 c_1_32: y_9 + y_10 + y_26 + y_27 + y_32 >= 1
 c_1_33: y_3 + y_7 + y_8 + y_20 + y_22 + y_29 + y_33 + y_40 >= 1
 c_1_34: y_17 + y_23 + y_31 + y_34 + y_46 + y_48 >= 1
 c_1_35: y_19 + y_35 >= 1
 c_1_36: y_1 + y_17 + y_18 + y_21 + y_31 + y_36 + y_41 >= 1
 c_1_37: y_7 + y_10 + y_27 + y_30 + y_37 >= 1
 c_1_38: y_12 + y_13 + y_16 + y_25 + y_38 + y_42 + y_43 >= 1
 c_1_39: y_11 + y_23 + y_24 + y_28 + y_30 + y_39 + y_48 >= 1
 c_1_40: y_3 + y_8 + y_20 + y_22 + y_29 + y_33 + y_40 >= 1
 c_1_41: y_0 + y_1 + y_18 + y_21 + y_36 + y_41 + y_47 >= 1
 c_1_42: y_11 + y_12 + y_13 + y_16 + y_25 + y_38 + y_42 + y_43 >= 1
 c_1_43: y_11 + y_25 + y_38 + y_42 + y_43 >= 1
 c_1_44: y_15 + y_26 + y_44 + y_45 >= 1
 c_1_45: y_15 + y_26 + y_44 + y_45 >= 1
 c_1_46: y_23 + y_34 + y_46 >= 1
 c_1_47: y_0 + y_1 + y_6 + y_7 + y_14 + y_17 + y_18 + y_20 + y_31 + y_41
   + y_47 + y_49 >= 1
 c_1_48: y_17 + y_23 + y_24 + y_28 + y_30 + y_31 + y_34 + y_39 + y_48 >= 1
 c_1_49: y_1 + y_6 + y_7 + y_17 + y_18 + y_20 + y_24 + y_28 + y_30 + y_31
   + y_47 + y_49 >= 1
Bounds
 Constant = 1
Binaries
 y_0 y_1 y_2 y_3 y_4 y_5 y_6 y_7 y_8 y_9 y_10 y_11 y_12 y_13 y_14 y_15 y_16
 y_17 y_18 y_19 y_20 y_21 y_22 y_23 y_24 y_25 y_26 y_27 y_28 y_29 y_30 y_31
 y_32 y_33 y_34 y_35 y_36 y_37 y_38 y_39 y_40 y_41 y_42 y_43 y_44 y_45 y_46
 y_47 y_48 y_49
End
